(set-logic QF_S)
(declare-fun _var_0xINPUT_104572_() String)
(declare-fun __woorpje_diseq_pref0_() String)
(declare-fun __woorpje_diseq_suf_l0_() String)
(declare-fun __woorpje_diseq_suf_r0_() String)
(assert (=(str.++  "dPjURQ30tB" "")(str.++ __woorpje_diseq_pref0_  "Q" __woorpje_diseq_suf_l0_  "")) )
(assert (=(str.++ _var_0xINPUT_104572_  "")(str.++ __woorpje_diseq_pref0_  "B" __woorpje_diseq_suf_r0_  "")) )
(check-sat)
